1650130
61,6,30,103,92,4,67,79,56,74,48,21,80,17,53,100,102,54,58,22,15,23,24,109,90,64,10,66,77,9,104,97,47,39,14,70,69,27,86,75,57,31,72,38,26,37,41,71,99,76,50,18,7,88,65,12,36,28,8,60,42,106,33,108,55,40,68,73,19,62,87,96,93,13,105,89,11,49,85,43,44,20,63,3,83,25,16,29,52,34,45,82,1,5,35,101,98,107,94,46,81,2,59,84,51,95,32